aux_benchmarks/lp2sat/smokers_4_2_prob.lp.lp.cnf
p cnf 53 116
8 24 0
-8 -24 0
9 -8 0
-9 8 0
10 25 0
-10 -25 0
-30 -11 -33 0
-30 11 0
36 -10 0
-36 10 0
50 -36 0
-50 36 0
33 -36 0
-33 36 0
37 -14 -15 0
-37 14 0
-37 15 0
51 -37 0
-51 37 0
39 -30 -37 31 0
-39 30 0
-39 37 0
-39 -31 0
38 -37 -39 0
-38 37 0
-38 39 0
34 -38 33 0
-34 38 0
-34 -33 0
40 -30 -37 31 0
-40 30 0
-40 37 0
-40 -31 0
-38 40 0
35 -37 -40 0
-35 37 0
-35 40 0
-34 35 0
-11 34 33 0
12 26 0
-12 -26 0
13 27 0
-13 -27 0
-31 -14 -42 0
-31 14 0
45 -13 0
-45 13 0
52 -45 0
-52 45 0
42 -45 0
-42 45 0
46 -11 -12 0
-46 11 0
-46 12 0
53 -46 0
-53 46 0
48 -31 -46 30 0
-48 31 0
-48 46 0
-48 -30 0
47 -46 -48 0
-47 46 0
-47 48 0
43 -47 42 0
-43 47 0
-43 -42 0
49 -31 -46 30 0
-49 31 0
-49 46 0
-49 -30 0
-47 49 0
44 -46 -49 0
-44 46 0
-44 49 0
-43 44 0
-14 43 42 0
15 28 0
-15 -28 0
16 29 0
-16 -29 0
17 -16 0
-17 16 0
18 0
19 0
20 0
21 0
22 0
23 0
24 8 0
-24 -8 0
25 10 0
-25 -10 0
26 12 0
-26 -12 0
27 13 0
-27 -13 0
28 15 0
-28 -15 0
29 16 0
-29 -16 0
-1 0
-1 0
-2 0
-3 0
-4 0
-5 0
-6 0
-7 0
-11 50 51 0
11 -50 0
11 -51 0
-14 52 53 0
14 -52 0
14 -53 0
-32 0
-41 0
c p auxilliary 1 2 3 4 5 6 7 24 25 26 27 28 29 30 31 32 33 34 35 36 37 38 39 40 41 42 43 44 45 46 47 48 49 50 51 52 53 0
