aux_benchmarks/smokers/smokers_4_2_prob.lp.cnf
p cnf 30 46
18 0
-1 18 0
1 -18 0
19 0
-2 19 0
2 -19 0
20 0
-3 20 0
3 -20 0
21 0
-4 21 0
4 -21 0
22 0
-5 22 0
5 -22 0
23 0
-6 23 0
6 -23 0
24 -7 0
-24 7 0
-8 24 0
8 -24 0
25 -17 0
-25 17 0
26 -15 -11 0
-26 15 0
-26 11 0
-9 25 26 0
9 -25 0
9 -26 0
27 -12 0
-27 12 0
28 -16 -17 0
-28 16 0
-28 17 0
-11 27 28 0
11 -27 0
11 -28 0
29 -14 0
-29 14 0
-13 29 0
13 -29 0
30 -10 0
-30 10 0
-17 30 0
17 -30 0
c p weight 1 1.0;1.0;1.0;1.0 0
c p weight -1 1.0;1.0;1.0;1.0 0
c p weight 2 1.0;1.0;1.0;1.0 0
c p weight -2 1.0;1.0;1.0;1.0 0
c p weight 3 1.0;1.0;1.0;1.0 0
c p weight -3 1.0;1.0;1.0;1.0 0
c p weight 4 1.0;1.0;1.0;1.0 0
c p weight -4 1.0;1.0;1.0;1.0 0
c p weight 5 1.0;1.0;1.0;1.0 0
c p weight -5 1.0;1.0;1.0;1.0 0
c p weight 6 1.0;1.0;1.0;1.0 0
c p weight -6 1.0;1.0;1.0;1.0 0
c p weight 7 0.5;0.5;0.5;0.5 0
c p weight -7 0.5;0.5;0.5;0.5 0
c p weight 8 1.0;1.0;1.0;1.0 0
c p weight -8 0.0;1.0;1.0;1.0 0
c p weight 9 1.0;1.0;1.0;1.0 0
c p weight -9 1.0;0.0;1.0;1.0 0
c p weight 10 0.5;0.5;0.5;0.5 0
c p weight -10 0.5;0.5;0.5;0.5 0
c p weight 11 1.0;1.0;1.0;1.0 0
c p weight -11 1.0;1.0;0.0;1.0 0
c p weight 12 0.5;0.5;0.5;0.5 0
c p weight -12 0.5;0.5;0.5;0.5 0
c p weight 13 1.0;1.0;1.0;1.0 0
c p weight -13 1.0;1.0;1.0;0.0 0
c p weight 14 0.5;0.5;0.5;0.5 0
c p weight -14 0.5;0.5;0.5;0.5 0
c p weight 15 0.5;0.5;0.5;0.5 0
c p weight -15 0.5;0.5;0.5;0.5 0
c p weight 16 0.5;0.5;0.5;0.5 0
c p weight -16 0.5;0.5;0.5;0.5 0
c p weight 17 1.0;1.0;1.0;1.0 0
c p weight -17 1.0;1.0;1.0;1.0 0
c p weight 18 1.0;1.0;1.0;1.0 0
c p weight -18 1.0;1.0;1.0;1.0 0
c p weight 19 1.0;1.0;1.0;1.0 0
c p weight -19 1.0;1.0;1.0;1.0 0
c p weight 20 1.0;1.0;1.0;1.0 0
c p weight -20 1.0;1.0;1.0;1.0 0
c p weight 21 1.0;1.0;1.0;1.0 0
c p weight -21 1.0;1.0;1.0;1.0 0
c p weight 22 1.0;1.0;1.0;1.0 0
c p weight -22 1.0;1.0;1.0;1.0 0
c p weight 23 1.0;1.0;1.0;1.0 0
c p weight -23 1.0;1.0;1.0;1.0 0
c p weight 24 1.0;1.0;1.0;1.0 0
c p weight -24 1.0;1.0;1.0;1.0 0
c p weight 25 1.0;1.0;1.0;1.0 0
c p weight -25 1.0;1.0;1.0;1.0 0
c p weight 26 1.0;1.0;1.0;1.0 0
c p weight -26 1.0;1.0;1.0;1.0 0
c p weight 27 1.0;1.0;1.0;1.0 0
c p weight -27 1.0;1.0;1.0;1.0 0
c p weight 28 1.0;1.0;1.0;1.0 0
c p weight -28 1.0;1.0;1.0;1.0 0
c p weight 29 1.0;1.0;1.0;1.0 0
c p weight -29 1.0;1.0;1.0;1.0 0
c p weight 30 1.0;1.0;1.0;1.0 0
c p weight -30 1.0;1.0;1.0;1.0 0
c p semirings aspmc.semirings.probabilistic 0
c p quantify 1 2 3 4 5 6 7 8 9 10 11 12 13 14 15 16 17 18 19 20 21 22 23 24 25 26 27 28 29 30 0
c p auxilliary 1 2 3 4 5 6 17 18 19 20 21 22 23 24 25 26 27 28 29 30 0
